NAME 
ROWS
 N  OBJ
 L  R0      
 L  R1      
 E  R2      
 E  R3      
 E  R4      
 E  R5      
 E  R6      
 E  R7      
 E  R8      
 E  R9      
 E  R10     
 E  R11     
 E  R12     
 E  R13     
 E  R14     
 E  R15     
 E  R16     
COLUMNS
    MARKER    'MARKER'                 'INTORG'
    I0(9)     OBJ       -108
    I0(9)     R0        192
    I0(9)     R1        -17
    I0(9)     R2        13
    I0(9)     R4        11
    I0(9)     R5        3
    I0(9)     R6        10
    I0(9)     R7        10
    I0(9)     R8        5
    I0(9)     R16       1
    I1(5)     OBJ       190
    I1(5)     R0        -26
    I1(5)     R1        -38
    I1(5)     R5        18
    I1(5)     R6        8
    I1(5)     R16       1
    I2(7)     OBJ       111
    I2(7)     R0        172
    I2(7)     R1        -88
    I2(7)     R2        12
    I2(7)     R3        3
    I2(7)     R6        16
    I2(7)     R7        3
    I2(7)     R16       1
    I3(6)     OBJ       131
    I3(6)     R0        29
    I3(6)     R1        85
    I3(6)     R3        10
    I3(6)     R4        7
    I3(6)     R7        15
    I3(6)     R16       1
    I4(8)     OBJ       9
    I4(8)     R0        65
    I4(8)     R1        -54
    I4(8)     R4        1
    I4(8)     R5        15
    I4(8)     R6        5
    I4(8)     R7        7
    I4(8)     R8        4
    I4(8)     R16       1
    I5(5)     OBJ       -17
    I5(5)     R0        -137
    I5(5)     R1        -60
    I5(5)     R3        19
    I5(5)     R4        16
    I5(5)     R16       1
    I6(5)     OBJ       6
    I6(5)     R0        161
    I6(5)     R1        99
    I6(5)     R3        16
    I6(5)     R5        -1
    I6(5)     R16       1
    MARKER    'MARKER'                 'INTEND'
    C7(8)     OBJ       9
    C7(8)     R0        7
    C7(8)     R1        2
    C7(8)     R4        7
    C7(8)     R8        19
    C7(8)     R9        9
    C7(8)     R11       19
    C7(8)     R13       6
    C7(8)     R14       15
    C8(8)     OBJ       -2
    C8(8)     R1        7
    C8(8)     R4        11
    C8(8)     R6        7
    C8(8)     R8        13
    C8(8)     R9        13
    C8(8)     R10       5
    C8(8)     R11       1
    C8(8)     R15       9
    C9(8)     OBJ       -2
    C9(8)     R0        2
    C9(8)     R1        -5
    C9(8)     R3        10
    C9(8)     R7        1
    C9(8)     R8        2
    C9(8)     R11       17
    C9(8)     R12       9
    C9(8)     R15       11
    C10(7)    OBJ       3
    C10(7)    R0        -4
    C10(7)    R1        6
    C10(7)    R2        9
    C10(7)    R3        9
    C10(7)    R5        1
    C10(7)    R9        18
    C10(7)    R14       16
    C11(11)   OBJ       -1
    C11(11)   R0        9
    C11(11)   R1        -2
    C11(11)   R2        16
    C11(11)   R5        5
    C11(11)   R6        16
    C11(11)   R8        14
    C11(11)   R9        17
    C11(11)   R10       16
    C11(11)   R11       9
    C11(11)   R12       2
    C11(11)   R13       17
    C12(9)    OBJ       -7
    C12(9)    R0        6
    C12(9)    R1        6
    C12(9)    R2        7
    C12(9)    R3        19
    C12(9)    R6        19
    C12(9)    R7        7
    C12(9)    R8        13
    C12(9)    R10       14
    C12(9)    R13       8
    C13(10)   OBJ       4
    C13(10)   R0        2
    C13(10)   R1        -6
    C13(10)   R3        13
    C13(10)   R5        18
    C13(10)   R7        14
    C13(10)   R9        15
    C13(10)   R10       1
    C13(10)   R11       9
    C13(10)   R12       14
    C13(10)   R13       9
    C14(13)   OBJ       -8
    C14(13)   R0        4
    C14(13)   R1        6
    C14(13)   R2        16
    C14(13)   R4        5
    C14(13)   R5        14
    C14(13)   R6        4
    C14(13)   R7        6
    C14(13)   R8        16
    C14(13)   R10       1
    C14(13)   R11       10
    C14(13)   R12       -1
    C14(13)   R13       5
    C14(13)   R14       11
    C15(1)    R2        1
    C16(1)    R3        1
    C17(1)    R4        1
    C18(1)    R5        1
    C19(1)    R6        1
    C20(1)    R7        1
    C21(1)    R8        1
    C22(1)    R9        1
    C23(1)    R10       1
    C24(1)    R11       1
    C25(1)    R12       1
    C26(1)    R13       1
    C27(1)    R14       1
    C28(1)    R15       1
    C29(1)    R16       1
RHS
    RHS1      R0        4.0811885245901641e+02
    RHS1      R1        -3.7827868852459012e+01
    RHS1      R2        56
    RHS1      R3        91
    RHS1      R4        65
    RHS1      R5        66
    RHS1      R6        71
    RHS1      R7        68
    RHS1      R8        53
    RHS1      R9        88
    RHS1      R10       76
    RHS1      R11       68
    RHS1      R12       77
    RHS1      R13       86
    RHS1      R14       56
    RHS1      R15       95
    RHS1      R16       2
BOUNDS
 UP BND1      I0(9)     2
 UP BND1      I1(5)     2
 UP BND1      I2(7)     2
 UP BND1      I3(6)     2
 UP BND1      I4(8)     2
 UP BND1      I5(5)     2
 UP BND1      I6(5)     2
ENDATA
